benchmarks/bfuzz0/93993239413641222434175179422864626390.smt2
(set-logic QF_FP)
(declare-const x0 (_ FloatingPoint 8 24))
(declare-const x1 (_ FloatingPoint 8 24))
(declare-const x2 (_ FloatingPoint 8 24))
(declare-const x3 (_ FloatingPoint 8 24))
(declare-const x4 (_ FloatingPoint 8 24))
(declare-const x5 (_ FloatingPoint 8 24))
(declare-const x6 (_ FloatingPoint 8 24))
(declare-const x7 (_ FloatingPoint 8 24))
(declare-const x8 (_ FloatingPoint 8 24))
(declare-const x9 (_ FloatingPoint 8 24))
(declare-const x10 (_ FloatingPoint 8 24))
(declare-const x11 (_ FloatingPoint 8 24))
(assert (fp.eq (fp.div RNE x11 x8) (fp.neg x11)))
(assert (fp.lt (fp.div RNE x5 x7) (fp.add RNE x5 x0)))
(assert (fp.leq (fp.mul RNE x1 x5) (fp.div RNE x1 x6)))
(assert (fp.gt (fp.sub RNE x2 x10) (fp.div RNE x1 x0)))
(assert (fp.leq (fp.sub RNE x0 x7) (fp.add RNE x8 x8)))
(assert (fp.leq (fp.div RNE x0 x5) (fp.div RNE x7 x6)))
(assert (fp.leq (fp.add RNE x0 x0) (fp.sub RNE x3 x1)))
(assert (fp.eq (fp.div RNE x9 x10) (fp.sub RNE x3 x10)))
(assert (fp.leq (fp.add RNE x10 x0) (fp.mul RNE x4 x3)))
(assert (fp.lt (fp.div RNE x11 x8) (fp.add RNE x9 x11)))
(assert (fp.leq (fp.add RNE x11 x5) (fp.neg x5)))
(assert (fp.eq (fp.sub RNE x8 x2) (fp.div RNE x3 x4)))
(assert (fp.lt (fp.neg x6) (fp.neg x5)))
(assert (fp.geq (fp.add RNE x5 x0) (fp.add RNE x3 x11)))
(assert (fp.gt (fp.sub RNE x0 x0) (fp.mul RNE x2 x4)))
(assert (fp.geq (fp.div RNE x4 x10) (fp.add RNE x4 x0)))
(assert (fp.leq (fp.mul RNE x8 x0) (fp.div RNE x6 x8)))
(check-sat)
