db/data/93993239413641222434175179422864626390.z3.out
sat
-------------------
776.170281118
